c FILE: i160-314

c SOURCE: From steinlib

c DESCRIPTION: Steinlib instance with 160 nodes and 812 edges.

p edge 160 812
e 1 3
e 1 9
e 1 21
e 1 33
e 1 35
e 1 40
e 1 54
e 1 60
e 1 77
e 1 79
e 1 91
e 1 93
e 1 104
e 1 124
e 1 130
e 1 134
e 2 6
e 2 65
e 2 83
e 2 112
e 2 114
e 2 123
e 2 125
e 2 143
e 2 156
e 3 30
e 3 33
e 3 61
e 3 62
e 3 67
e 3 107
e 3 120
e 3 153
e 3 158
e 4 9
e 4 13
e 4 15
e 4 40
e 4 44
e 4 46
e 4 64
e 4 127
e 4 133
e 4 146
e 4 158
e 4 160
e 5 9
e 5 16
e 5 21
e 5 33
e 5 40
e 5 50
e 5 53
e 5 70
e 5 76
e 5 92
e 5 94
e 5 96
e 5 129
e 6 18
e 6 34
e 6 40
e 6 56
e 6 74
e 6 86
e 6 87
e 6 94
e 6 95
e 6 98
e 6 100
e 6 110
e 6 115
e 6 117
e 6 131
e 6 143
e 6 151
e 6 159
e 7 39
e 7 42
e 7 53
e 7 72
e 7 112
e 8 10
e 8 15
e 8 41
e 8 53
e 8 57
e 8 88
e 8 98
e 8 117
e 8 130
e 8 131
e 8 133
e 8 146
e 9 18
e 9 64
e 9 71
e 9 98
e 9 132
e 10 11
e 10 12
e 10 29
e 10 38
e 10 44
e 10 57
e 10 64
e 10 74
e 10 84
e 10 89
e 10 109
e 10 143
e 11 62
e 11 79
e 11 108
e 11 120
e 11 122
e 11 134
e 11 154
e 11 158
e 12 15
e 12 32
e 12 48
e 12 77
e 12 129
e 12 134
e 13 28
e 13 29
e 13 55
e 13 111
e 13 126
e 13 132
e 13 139
e 14 15
e 14 17
e 14 28
e 14 33
e 14 39
e 14 55
e 14 59
e 14 76
e 14 80
e 14 122
e 14 128
e 14 130
e 14 156
e 15 21
e 15 31
e 15 52
e 15 57
e 15 132
e 15 136
e 15 150
e 16 19
e 16 37
e 16 92
e 16 98
e 16 111
e 16 116
e 16 122
e 16 127
e 16 129
e 16 130
e 16 137
e 16 138
e 16 139
e 16 140
e 16 157
e 16 160
e 17 33
e 17 44
e 17 52
e 17 60
e 17 67
e 17 90
e 17 95
e 17 107
e 17 110
e 17 148
e 17 153
e 17 157
e 17 158
e 18 20
e 18 37
e 18 40
e 18 48
e 18 57
e 18 68
e 18 82
e 18 87
e 18 92
e 18 100
e 18 129
e 18 135
e 18 136
e 18 148
e 18 156
e 18 157
e 18 158
e 19 33
e 19 40
e 19 58
e 19 63
e 19 66
e 19 86
e 19 94
e 19 103
e 19 106
e 19 115
e 19 124
e 19 159
e 20 64
e 20 96
e 20 111
e 20 115
e 20 119
e 20 147
e 21 22
e 21 42
e 21 43
e 21 56
e 21 62
e 21 91
e 21 103
e 21 129
e 22 46
e 22 48
e 22 52
e 22 88
e 22 89
e 22 91
e 22 108
e 22 109
e 22 119
e 22 156
e 23 38
e 23 61
e 23 78
e 23 79
e 23 100
e 23 116
e 23 145
e 24 43
e 24 44
e 24 59
e 24 66
e 24 101
e 24 135
e 24 141
e 24 155
e 25 45
e 25 51
e 25 68
e 25 93
e 25 105
e 25 107
e 25 120
e 25 129
e 25 132
e 25 154
e 26 32
e 26 42
e 26 47
e 26 49
e 26 63
e 26 78
e 26 106
e 26 139
e 26 151
e 26 154
e 27 38
e 27 92
e 27 94
e 27 96
e 27 115
e 27 122
e 27 135
e 27 144
e 27 151
e 27 156
e 27 158
e 28 30
e 28 85
e 28 94
e 28 108
e 28 110
e 28 115
e 28 130
e 28 132
e 28 152
e 28 156
e 29 50
e 29 77
e 29 119
e 29 125
e 29 136
e 29 137
e 29 138
e 29 143
e 30 52
e 30 72
e 30 85
e 30 125
e 30 130
e 30 131
e 30 152
e 30 158
e 31 59
e 31 75
e 31 82
e 31 83
e 31 108
e 31 113
e 31 115
e 31 119
e 31 156
e 32 44
e 32 81
e 32 86
e 32 116
e 32 128
e 32 130
e 32 136
e 32 150
e 32 152
e 32 154
e 32 160
e 33 35
e 33 84
e 33 99
e 33 104
e 33 126
e 33 140
e 33 154
e 34 46
e 34 51
e 34 67
e 34 72
e 34 88
e 34 102
e 34 127
e 34 132
e 34 147
e 34 158
e 35 43
e 35 65
e 35 107
e 35 111
e 35 112
e 35 141
e 35 160
e 36 64
e 36 73
e 36 85
e 36 96
e 37 62
e 37 90
e 37 103
e 37 112
e 37 125
e 37 130
e 37 143
e 37 149
e 37 159
e 38 53
e 38 65
e 38 67
e 38 70
e 38 82
e 38 83
e 38 118
e 38 119
e 38 132
e 38 144
e 38 149
e 38 150
e 38 151
e 38 152
e 39 47
e 39 48
e 39 68
e 39 91
e 39 101
e 39 125
e 39 141
e 39 142
e 40 48
e 40 54
e 40 68
e 40 97
e 40 112
e 40 117
e 40 121
e 40 131
e 40 151
e 41 95
e 41 100
e 41 121
e 41 141
e 41 151
e 42 48
e 42 79
e 42 96
e 42 116
e 42 121
e 42 128
e 42 129
e 42 145
e 42 151
e 42 160
e 43 48
e 43 73
e 43 116
e 43 127
e 43 154
e 43 157
e 44 61
e 44 66
e 44 76
e 44 81
e 44 116
e 45 106
e 45 134
e 45 154
e 46 52
e 46 66
e 46 78
e 46 79
e 46 83
e 46 87
e 46 104
e 46 108
e 46 122
e 47 71
e 47 80
e 47 84
e 47 95
e 47 117
e 47 126
e 47 159
e 48 62
e 48 76
e 48 83
e 48 84
e 48 90
e 48 98
e 48 101
e 48 120
e 48 158
e 48 160
e 49 51
e 49 73
e 49 81
e 49 98
e 49 141
e 49 148
e 50 78
e 50 81
e 50 87
e 50 105
e 50 109
e 50 114
e 50 117
e 50 118
e 51 58
e 51 68
e 51 89
e 51 127
e 52 54
e 52 72
e 52 119
e 52 153
e 52 159
e 53 81
e 53 102
e 53 104
e 53 105
e 53 117
e 53 129
e 53 142
e 53 150
e 54 55
e 54 62
e 54 67
e 54 68
e 54 83
e 54 88
e 54 91
e 54 98
e 54 139
e 54 145
e 54 152
e 55 60
e 55 68
e 55 73
e 55 81
e 55 94
e 55 136
e 55 145
e 55 158
e 56 60
e 56 67
e 56 87
e 56 94
e 56 101
e 56 124
e 57 64
e 57 83
e 57 100
e 57 110
e 57 111
e 57 120
e 57 128
e 57 144
e 58 78
e 58 90
e 58 92
e 58 97
e 58 103
e 58 110
e 58 153
e 59 61
e 59 64
e 59 90
e 59 93
e 59 110
e 59 133
e 59 152
e 60 63
e 60 70
e 60 78
e 60 95
e 60 138
e 60 140
e 60 142
e 60 160
e 61 71
e 61 76
e 61 83
e 61 85
e 61 95
e 61 97
e 61 109
e 61 111
e 61 114
e 61 125
e 61 139
e 61 141
e 61 155
e 62 71
e 62 111
e 62 126
e 62 130
e 62 155
e 63 73
e 63 105
e 63 114
e 63 127
e 63 138
e 63 143
e 63 147
e 64 129
e 65 103
e 65 130
e 65 142
e 66 80
e 66 82
e 66 85
e 66 98
e 66 129
e 66 138
e 67 68
e 67 94
e 67 100
e 67 103
e 67 110
e 67 112
e 67 125
e 67 148
e 68 79
e 68 86
e 68 92
e 68 101
e 68 107
e 68 150
e 69 70
e 69 91
e 69 135
e 70 93
e 70 109
e 70 133
e 70 158
e 71 137
e 71 152
e 72 104
e 72 135
e 72 149
e 73 79
e 73 95
e 73 108
e 73 132
e 74 79
e 74 100
e 74 109
e 74 119
e 74 123
e 74 128
e 74 136
e 74 157
e 76 91
e 76 92
e 76 96
e 76 132
e 76 147
e 77 79
e 77 81
e 77 91
e 77 109
e 77 112
e 77 118
e 77 121
e 77 128
e 78 79
e 78 100
e 78 108
e 79 134
e 79 141
e 79 154
e 80 99
e 81 84
e 81 140
e 81 141
e 82 117
e 82 127
e 82 131
e 82 138
e 82 140
e 82 158
e 83 90
e 83 108
e 83 113
e 83 117
e 83 125
e 83 146
e 83 159
e 84 96
e 84 115
e 84 124
e 84 128
e 84 132
e 84 142
e 84 157
e 85 107
e 85 130
e 86 89
e 86 93
e 86 97
e 86 98
e 86 109
e 86 111
e 86 117
e 86 122
e 86 123
e 86 131
e 86 133
e 86 145
e 86 153
e 86 156
e 87 93
e 87 105
e 87 111
e 88 89
e 88 116
e 88 125
e 88 126
e 88 129
e 88 152
e 89 103
e 89 119
e 89 121
e 89 127
e 90 103
e 90 131
e 91 96
e 91 98
e 91 110
e 91 111
e 91 145
e 91 149
e 92 109
e 92 128
e 92 136
e 92 145
e 92 153
e 93 99
e 93 105
e 93 106
e 93 120
e 93 153
e 93 158
e 94 100
e 94 134
e 94 138
e 94 140
e 94 141
e 95 100
e 95 106
e 95 110
e 95 150
e 95 153
e 96 125
e 96 144
e 96 157
e 97 98
e 97 123
e 97 138
e 97 152
e 98 150
e 99 110
e 99 146
e 100 108
e 100 131
e 101 145
e 101 146
e 102 105
e 102 148
e 103 106
e 103 150
e 104 144
e 104 148
e 106 116
e 106 117
e 107 132
e 107 154
e 107 160
e 108 135
e 108 141
e 108 151
e 108 154
e 109 114
e 109 144
e 109 149
e 109 159
e 110 133
e 110 148
e 110 149
e 111 124
e 111 130
e 112 115
e 112 134
e 113 116
e 113 128
e 114 116
e 114 119
e 114 156
e 114 160
e 115 145
e 115 148
e 116 137
e 117 129
e 117 139
e 117 159
e 118 131
e 118 143
e 118 147
e 118 151
e 118 152
e 119 140
e 119 153
e 121 126
e 121 152
e 121 155
e 122 158
e 122 159
e 123 132
e 123 136
e 123 139
e 123 145
e 124 138
e 124 149
e 125 127
e 125 136
e 125 152
e 126 144
e 126 156
e 127 128
e 127 137
e 127 146
e 128 129
e 128 141
e 129 154
e 130 147
e 130 151
e 131 136
e 131 139
e 131 154
e 132 154
e 133 135
e 133 138
e 133 159
e 134 154
e 136 160
e 137 145
e 138 153
e 142 154
e 144 148
e 144 154
e 145 149
e 145 158
e 146 151
e 149 155
e 150 153
e 156 159
